files/upTests/_zznested_singletons/nestedSingleton2ma-/0001.eprime.solution
language ESSENCE' 1.0
$ minion Nodes: 1
$ minion TotalTime: 0.000362
$ Savile Row TotalTime: 0.126
letting pain_tuple1_tuple1 be [[[6;int(4)], 
[7;int(4)];int(3,4)], 
[[8;int(4)], 
[9;int(4)];int(3,4)];int(1..2)]
